(set-option :print-success false)
(set-logic QF_UF)
(declare-sort x7 0)
(declare-sort x28 0)
(declare-fun x19 () x28)
(declare-fun x109 () x28)
(declare-fun x111 (x28 x28) x28)
(declare-fun x77 () x28)
(declare-fun x153 () x28)
(declare-fun x83 (x28 x28) x28)
(declare-fun x26 () x28)
(assert (let ((x65 (x83 x26 x153)) (x144 (x83 x153 x77)) (x25 (x83 x77 x77)) (x80 (x83 x19 x77)) (x20 (x83 x153 x153)) (x151 (x83 x26 x26)) (x126 (x83 x153 x19)) (x138 (x83 x26 x19)) (x78 (x83 x153 x109)) (x75 (x83 x109 x109)) (x45 (x83 x26 x77)) (x152 (x83 x109 x77)) (x5 (x83 x77 x26)) (x158 (x83 x77 x19)) (x122 (x83 x153 x26)) (x2 (x83 x77 x153)) (x129 (x83 x109 x26)) (x33 (x83 x19 x19)) (x8 (x83 x109 x153)) (x137 (x83 x109 x19)) (x133 (x83 x19 x109)) (x89 (x83 x19 x26)) (x140 (x83 x26 x109)) (x36 (x83 x19 x153)) (x108 (x83 x77 x109))) (and (and (and (not (= x152 x25)) (and (and (not (= x152 x144)) (and (and (and (not (= x144 x80)) (and (not (= x25 x45)) (and (and (not (= x80 x45)) (not (= x144 x45))) (not (= x45 x152))))) (not (= x152 x80))) (not (= x80 x25)))) (not (= x144 x25)))) (and (and (and (and (and (and (not (= x129 x122)) (and (and (not (= x89 x129)) (and (and (and (not (= x151 x129)) (and (not (= x122 x151)) (not (= x151 x89)))) (not (= x5 x151))) (not (= x89 x122)))) (not (= x5 x89)))) (not (= x122 x5))) (not (= x5 x129))) (and (not (= x137 x158)) (and (and (not (= x126 x137)) (and (not (= x158 x33)) (and (not (= x137 x33)) (and (not (= x33 x126)) (and (not (= x158 x138)) (and (and (not (= x33 x138)) (not (= x138 x126))) (not (= x137 x138)))))))) (not (= x126 x158))))) (and (and (not (= x2 x20)) (and (and (not (= x36 x2)) (and (and (and (and (and (not (= x65 x36)) (not (= x65 x20))) (not (= x8 x65))) (not (= x2 x65))) (not (= x36 x20))) (not (= x36 x8)))) (not (= x8 x20)))) (not (= x8 x2)))) (and (and (not (= x108 x78)) (and (and (and (and (not (= x133 x78)) (and (and (and (not (= x140 x78)) (not (= x133 x140))) (not (= x75 x140))) (not (= x108 x140)))) (not (= x75 x133))) (not (= x133 x108))) (not (= x75 x78)))) (not (= x75 x108))))) (and (and (and (not (= x152 x75)) (and (and (not (= x75 x8)) (and (and (not (= x137 x75)) (and (and (not (= x152 x129)) (and (and (not (= x8 x129)) (not (= x137 x129))) (not (= x75 x129)))) (not (= x137 x8)))) (not (= x137 x152)))) (not (= x152 x8)))) (and (and (and (not (= x133 x80)) (and (not (= x80 x36)) (and (not (= x133 x36)) (and (not (= x80 x33)) (and (not (= x33 x133)) (and (not (= x33 x36)) (and (and (and (not (= x36 x89)) (not (= x33 x89))) (not (= x89 x133))) (not (= x89 x80))))))))) (and (not (= x140 x45)) (and (not (= x45 x65)) (and (and (not (= x138 x45)) (and (not (= x138 x140)) (and (and (not (= x45 x151)) (and (not (= x151 x140)) (and (not (= x151 x65)) (not (= x138 x151))))) (not (= x138 x65))))) (not (= x65 x140)))))) (and (and (and (and (not (= x144 x126)) (and (not (= x126 x78)) (and (and (and (not (= x78 x122)) (and (not (= x122 x20)) (not (= x126 x122)))) (not (= x144 x122))) (not (= x126 x20))))) (not (= x20 x78))) (not (= x144 x20))) (not (= x78 x144))))) (and (not (= x108 x25)) (and (not (= x25 x2)) (and (and (not (= x158 x25)) (and (not (= x108 x158)) (and (and (and (not (= x108 x5)) (and (not (= x158 x5)) (not (= x2 x5)))) (not (= x25 x5))) (not (= x158 x2))))) (not (= x2 x108)))))))))
(assert (let ((x80 (x83 x19 x77)) (x55 (x83 x77 x19)) (x37 (x83 x77 x109)) (x92 (x83 x77 x77)) (x5 (x83 x26 x109)) (x138 (x83 x26 x77)) (x27 (x83 x153 x153)) (x137 (x83 x153 x26)) (x122 (x83 x26 x19)) (x108 (x83 x19 x153)) (x89 (x83 x26 x26)) (x45 (x83 x19 x109)) (x129 (x83 x26 x153)) (x158 (x83 x109 x26)) (x53 (x83 x109 x109)) (x16 (x83 x109 x77)) (x47 (x83 x109 x153)) (x156 (x83 x77 x153)) (x146 (x83 x153 x77)) (x126 (x83 x19 x26)) (x65 (x83 x77 x26)) (x58 (x83 x109 x19)) (x75 (x83 x19 x19)) (x9 (x83 x153 x109)) (x25 (x83 x153 x19))) (let ((x4 (= x109 x75)) (x102 (= x77 x9)) (x155 (= x109 x27)) (x119 (= x77 x122)) (x140 (= x122 x26)) (x69 (= x65 x77)) (x105 (= x80 x153)) (x70 (= x26 x108)) (x31 (= x137 x153)) (x130 (= x58 x26)) (x112 (= x80 x109)) (x24 (= x19 x92)) (x68 (= x26 x16)) (x14 (= x146 x153)) (x41 (= x158 x19)) (x79 (= x109 x108)) (x72 (= x109 x9)) (x62 (= x109 x156)) (x107 (= x77 x53)) (x115 (= x153 x16)) (x104 (= x19 x53)) (x52 (= x19 x27)) (x134 (= x77 x45)) (x11 (= x109 x146)) (x135 (= x108 x19)) (x125 (= x9 x19)) (x22 (= x19 x37)) (x139 (= x19 x80)) (x91 (= x45 x153)) (x152 (= x75 x19)) (x67 (= x5 x26)) (x30 (= x146 x26)) (x136 (= x153 x75)) (x66 (= x45 x109)) (x150 (= x58 x109)) (x145 (= x138 x109)) (x29 (= x25 x77)) (x51 (= x26 x47)) (x61 (= x129 x26)) (x114 (= x19 x156)) (x149 (= x9 x26)) (x141 (= x16 x19)) (x151 (= x26 x89)) (x48 (= x55 x19)) (x90 (= x16 x77)) (x46 (= x138 x19)) (x131 (= x26 x92)) (x59 (= x26 x137)) (x49 (= x109 x25)) (x128 (= x55 x77)) (x12 (= x108 x77)) (x98 (= x19 x146)) (x120 (= x153 x129)) (x97 (= x27 x77)) (x123 (= x153 x47)) (x81 (= x53 x153)) (x147 (= x109 x53)) (x2 (= x126 x26)) (x85 (= x109 x5)) (x127 (= x9 x153)) (x133 (= x75 x26)) (x40 (= x156 x26)) (x124 (= x108 x153)) (x64 (= x65 x19)) (x38 (= x25 x26)) (x6 (= x122 x153)) (x21 (= x26 x53)) (x148 (= x58 x153)) (x36 (= x89 x153)) (x95 (= x80 x77)) (x159 (= x129 x77)) (x44 (= x109 x92)) (x20 (= x109 x89)) (x63 (= x5 x153)) (x1 (= x26 x65)) (x32 (= x158 x109)) (x88 (= x153 x55)) (x17 (= x37 x26)) (x144 (= x19 x122)) (x110 (= x26 x45)) (x93 (= x58 x19)) (x143 (= x109 x47)) (x121 (= x153 x126)) (x84 (= x153 x158)) (x60 (= x55 x109)) (x142 (= x47 x77)) (x8 (= x77 x89)) (x39 (= x26 x55)) (x74 (= x77 x158)) (x56 (= x37 x153)) (x71 (= x77 x146)) (x15 (= x109 x65)) (x23 (= x19 x25)) (x101 (= x153 x138)) (x96 (= x137 x19)) (x13 (= x27 x26)) (x18 (= x138 x77)) (x113 (= x129 x19)) (x43 (= x137 x109)) (x33 (= x19 x89)) (x57 (= x80 x26)) (x34 (= x129 x109)) (x117 (= x77 x126)) (x103 (= x26 x138)) (x3 (= x27 x153)) (x86 (= x77 x58)) (x10 (= x19 x47)) (x132 (= x5 x19)) (x54 (= x37 x109)) (x99 (= x77 x92)) (x157 (= x77 x37)) (x116 (= x92 x153)) (x50 (= x109 x126)) (x76 (= x153 x65)) (x73 (= x153 x156)) (x94 (= x109 x16)) (x78 (= x19 x126)) (x82 (= x25 x153)) (x154 (= x75 x77)) (x35 (= x77 x156)) (x87 (= x137 x77)) (x118 (= x26 x158)) (x106 (= x5 x77)) (x42 (= x45 x19)) (x100 (= x122 x109))) (and (and (and (and (and (and (and (or (or (or x43 (or x50 x20)) x32) x15) (or (or (or x34 (or x100 x20)) x85) x145)) (and (and (or (or x63 (or (or x6 x36) x120)) x101) (or (or x84 (or (or x36 x121) x31)) x76)) (and (and (or x46 (or x132 (or (or x33 x144) x113))) (or (or (or (or x33 x78) x96) x41) x64)) (and (or (or x118 (or x59 (or x2 x151))) x1) (or (or x67 (or (or x140 x151) x61)) x103))))) (and (or (or (or x159 (or x8 x119)) x106) x18) (or (or x74 (or (or x117 x8) x87)) x69))) (and (and (or (or x134 (or x12 (or x154 x117))) x95) (or (or (or (or x119 x154) x29) x86) x128)) (and (and (and (or (or x148 (or (or x136 x6) x82)) x88) (or (or (or (or x136 x121) x124) x91) x105)) (and (and (or (or (or x38 (or x140 x133)) x130) x39) (or (or (or x70 (or x2 x133)) x110) x57)) (and (or x139 (or x42 (or x135 (or x152 x78)))) (or x48 (or (or x23 (or x152 x144)) x93))))) (and (or x112 (or x66 (or (or x50 x4) x79))) (or x60 (or (or (or x4 x100) x49) x150)))))) (and (and (or (or (or x97 (or x12 x159)) x142) x35) (or (or x102 (or (or x29 x87) x97)) x71)) (and (and (and (and (or (or x10 (or (or x113 x135) x52)) x114) (or (or (or x52 (or x96 x23)) x125) x98)) (and (or x40 (or (or (or x61 x70) x13) x51)) (or (or (or (or x38 x59) x13) x149) x30))) (and (or x14 (or (or (or x82 x31) x3) x127)) (or (or x123 (or (or x120 x124) x3)) x73))) (and (or (or (or (or x34 x79) x155) x143) x62) (or (or (or x155 (or x43 x49)) x72) x11))))) (and (and (or (or (or x142 (or x86 x74)) x107) x90) (or x157 (or x107 (or (or x106 x134) x102)))) (and (and (and (or x115 (or x81 (or x123 (or x148 x84)))) (or (or (or x127 (or x63 x91)) x81) x56)) (and (and (or x141 (or x104 (or (or x41 x93) x10))) (or (or x104 (or x125 (or x42 x132))) x22)) (and (or x68 (or x21 (or x51 (or x118 x130)))) (or x17 (or (or x149 (or x67 x110)) x21))))) (and (or (or (or x143 (or x150 x32)) x147) x94) (or x54 (or x147 (or x72 (or x85 x66)))))))) (and (and (or x99 (or (or (or x95 x18) x71) x90)) (or x99 (or x157 (or (or x69 x128) x35)))) (and (and (or (or (or (or x15 x60) x62) x54) x44) (or x44 (or x94 (or (or x145 x112) x11)))) (and (and (or x116 (or (or (or x105 x101) x14) x115)) (or (or (or (or x88 x76) x73) x56) x116)) (and (and (or x131 (or (or (or x103 x57) x30) x68)) (or x131 (or (or x40 (or x39 x1)) x17))) (and (or (or (or (or x139 x46) x98) x141) x24) (or (or x22 (or x114 (or x64 x48))) x24))))))))))
(assert (and (not (= x109 x77)) (and (and (and (not (= x19 x77)) (and (and (and (and (not (= x26 x109)) (and (not (= x26 x153)) (not (= x26 x19)))) (not (= x26 x77))) (not (= x153 x19))) (not (= x109 x19)))) (not (= x109 x153))) (not (= x77 x153)))))
(assert (let ((x36 (x83 x153 x19)) (x78 (x83 x109 x153)) (x126 (x83 x19 x153)) (x133 (x83 x109 x19)) (x108 (x83 x109 x77)) (x5 (x83 x26 x77)) (x158 (x83 x19 x77)) (x20 (x83 x153 x153)) (x45 (x83 x77 x26)) (x65 (x83 x153 x26)) (x129 (x83 x26 x109)) (x8 (x83 x153 x109)) (x75 (x83 x109 x109)) (x80 (x83 x77 x19)) (x140 (x83 x109 x26)) (x152 (x83 x77 x109)) (x2 (x83 x153 x77)) (x151 (x83 x26 x26)) (x138 (x83 x19 x26)) (x137 (x83 x19 x109)) (x144 (x83 x77 x153)) (x122 (x83 x26 x153)) (x33 (x83 x19 x19)) (x89 (x83 x26 x19)) (x25 (x83 x77 x77))) (and (and (and (and (and (and (and (and (or (or (or (= x151 x153) (or (= x151 x19) (= x151 x26))) (= x109 x151)) (= x151 x77)) (or (= x89 x77) (or (= x109 x89) (or (= x89 x153) (or (= x89 x26) (= x19 x89)))))) (or (or (or (= x122 x153) (or (= x122 x19) (= x26 x122))) (= x109 x122)) (= x77 x122))) (or (or (or (= x153 x129) (or (= x129 x26) (= x129 x19))) (= x129 x109)) (= x129 x77))) (or (= x5 x77) (or (or (= x153 x5) (or (= x19 x5) (= x26 x5))) (= x5 x109)))) (and (or (= x158 x77) (or (= x109 x158) (or (or (= x158 x19) (= x158 x26)) (= x153 x158)))) (and (and (or (or (= x109 x126) (or (= x153 x126) (or (= x126 x19) (= x26 x126)))) (= x77 x126)) (and (or (= x77 x33) (or (= x109 x33) (or (= x153 x33) (or (= x33 x26) (= x33 x19))))) (or (= x138 x77) (or (= x138 x109) (or (= x138 x153) (or (= x138 x26) (= x19 x138))))))) (or (or (= x109 x137) (or (= x153 x137) (or (= x19 x137) (= x26 x137)))) (= x137 x77))))) (and (or (or (or (= x153 x2) (or (= x26 x2) (= x2 x19))) (= x2 x109)) (= x77 x2)) (and (or (= x8 x77) (or (= x109 x8) (or (= x8 x153) (or (= x19 x8) (= x26 x8))))) (and (or (or (= x109 x20) (or (or (= x20 x19) (= x26 x20)) (= x20 x153))) (= x20 x77)) (and (or (or (or (or (= x36 x19) (= x36 x26)) (= x153 x36)) (= x36 x109)) (= x77 x36)) (or (= x77 x65) (or (or (= x65 x153) (or (= x19 x65) (= x65 x26))) (= x109 x65)))))))) (and (and (and (and (or (or (= x109 x133) (or (= x153 x133) (or (= x133 x26) (= x19 x133)))) (= x133 x77)) (or (or (= x109 x140) (or (= x140 x153) (or (= x140 x26) (= x140 x19)))) (= x77 x140))) (or (= x78 x77) (or (= x78 x109) (or (or (= x78 x19) (= x26 x78)) (= x153 x78))))) (or (= x75 x77) (or (or (or (= x75 x19) (= x75 x26)) (= x153 x75)) (= x75 x109)))) (or (= x108 x77) (or (or (= x153 x108) (or (= x108 x26) (= x19 x108))) (= x109 x108))))) (and (and (and (or (or (or (= x153 x144) (or (= x19 x144) (= x26 x144))) (= x109 x144)) (= x77 x144)) (and (or (or (= x109 x45) (or (= x45 x153) (or (= x45 x26) (= x45 x19)))) (= x77 x45)) (or (or (= x109 x80) (or (or (= x80 x26) (= x19 x80)) (= x153 x80))) (= x77 x80)))) (or (= x152 x77) (or (= x109 x152) (or (= x152 x153) (or (= x19 x152) (= x26 x152)))))) (or (= x25 x77) (or (or (or (= x19 x25) (= x25 x26)) (= x25 x153)) (= x109 x25)))))))
(assert (and (or (or (= x109 (x83 (x83 x77 x109) x77)) (or (= x153 (x83 (x83 x77 x153) x77)) (or (= x26 (x83 (x83 x77 x26) x77)) (= (x83 (x83 x77 x19) x77) x19)))) (= x77 (x83 (x83 x77 x77) x77))) (and (or (or (= x109 (x83 (x83 x109 x109) x109)) (or (= x153 (x83 (x83 x109 x153) x109)) (or (= x26 (x83 (x83 x109 x26) x109)) (= (x83 (x83 x109 x19) x109) x19)))) (= x77 (x83 (x83 x109 x77) x109))) (and (or (= x77 (x83 (x83 x153 x77) x153)) (or (or (or (= x26 (x83 (x83 x153 x26) x153)) (= x19 (x83 (x83 x153 x19) x153))) (= x153 (x83 (x83 x153 x153) x153))) (= x109 (x83 (x83 x153 x109) x153)))) (and (or (or (or (or (= (x83 (x83 x26 x26) x26) x26) (= (x83 (x83 x26 x19) x26) x19)) (= x153 (x83 (x83 x26 x153) x26))) (= (x83 (x83 x26 x109) x26) x109)) (= x77 (x83 (x83 x26 x77) x26))) (or (= (x83 (x83 x19 x77) x19) x77) (or (or (= x153 (x83 (x83 x19 x153) x19)) (or (= x26 (x83 (x83 x19 x26) x19)) (= (x83 (x83 x19 x19) x19) x19))) (= (x83 (x83 x19 x109) x19) x109))))))))
(assert (not (and (and (and (= (x83 x77 x153) x109) (and (= (x83 x77 x19) x77) (and (and (= x19 (x83 x109 x77)) (and (= x26 (x83 x109 x109)) (and (= x77 (x83 x109 x153)) (and (and (and (and (and (and (and (= x19 (x83 x153 x26)) (and (= (x83 x19 x77) x153) (and (= x109 (x83 x19 x109)) (and (and (= (x83 x19 x19) x19) (and (and (= x77 (x83 x26 x77)) (and (and (and (= (x83 x26 x26) x26) (= (x83 x26 x19) x109)) (= (x83 x26 x153) x19)) (= (x83 x26 x109) x153))) (= x77 (x83 x19 x26)))) (= (x83 x19 x153) x26))))) (= x26 (x83 x153 x19))) (= x153 (x83 x153 x153))) (= x77 (x83 x153 x109))) (= (x83 x153 x77) x109)) (= (x83 x109 x26) x109)) (= x153 (x83 x109 x19)))))) (= x153 (x83 x77 x26))))) (= x19 (x83 x77 x109))) (= (x83 x77 x77) x26))))
(assert (let ((x8 (x83 x19 x26)) (x129 (x83 x26 x19)) (x61 (x83 x77 x26)) (x158 (x83 x26 x77)) (x25 (x83 x153 x26)) (x80 (x83 x19 x153)) (x136 (x83 x153 x109)) (x55 (x83 x153 x19)) (x108 (x83 x19 x19)) (x100 (x83 x109 x26)) (x126 (x83 x26 x109)) (x154 (x83 x109 x153)) (x23 (x83 x77 x153)) (x50 (x83 x153 x77)) (x138 (x83 x26 x153)) (x144 (x83 x19 x109)) (x13 (x83 x77 x19)) (x38 (x83 x109 x77)) (x117 (x83 x109 x19)) (x152 (x83 x19 x77)) (x27 (x83 x77 x109)) (x9 (x83 x77 x77)) (x89 (x83 x26 x26)) (x6 (x83 x153 x153)) (x59 (x83 x109 x109))) (let ((x142 (= x153 x59)) (x133 (= x158 x19)) (x96 (= x19 x152)) (x155 (= x6 x26)) (x93 (= x109 x138)) (x60 (= x26 x27)) (x122 (= x129 x26)) (x148 (= x144 x109)) (x70 (= x152 x26)) (x14 (= x77 x136)) (x24 (= x152 x77)) (x86 (= x154 x109)) (x45 (= x19 x108)) (x118 (= x153 x136)) (x91 (= x154 x26)) (x33 (= x26 x126)) (x78 (= x8 x19)) (x119 (= x19 x144)) (x140 (= x19 x126)) (x72 (= x59 x26)) (x106 (= x109 x59)) (x11 (= x59 x77)) (x87 (= x55 x153)) (x74 (= x19 x59)) (x105 (= x23 x153)) (x31 (= x158 x153)) (x68 (= x126 x77)) (x81 (= x154 x19)) (x58 (= x80 x26)) (x66 (= x100 x109)) (x97 (= x136 x19)) (x147 (= x117 x109)) (x34 (= x152 x153)) (x12 (= x136 x26)) (x54 (= x27 x19)) (x132 (= x8 x109)) (x57 (= x77 x138)) (x104 (= x19 x117)) (x29 (= x6 x19)) (x76 (= x77 x25)) (x71 (= x27 x77)) (x65 (= x19 x89)) (x39 (= x77 x89)) (x124 (= x153 x108)) (x125 (= x109 x108)) (x67 (= x50 x153)) (x116 (= x77 x50)) (x15 (= x100 x77)) (x16 (= x158 x109)) (x84 (= x153 x117)) (x146 (= x153 x89)) (x56 (= x23 x19)) (x101 (= x6 x77)) (x114 (= x26 x13)) (x52 (= x19 x25)) (x3 (= x55 x19)) (x2 (= x19 x138)) (x145 (= x154 x77)) (x69 (= x77 x61)) (x21 (= x109 x129)) (x47 (= x138 x153)) (x36 (= x8 x26)) (x63 (= x109 x25)) (x42 (= x26 x117)) (x44 (= x38 x77)) (x4 (= x26 x144)) (x102 (= x38 x19)) (x141 (= x109 x13)) (x18 (= x77 x23)) (x115 (= x23 x109)) (x75 (= x26 x108)) (x150 (= x154 x153)) (x62 (= x77 x117)) (x64 (= x158 x77)) (x95 (= x153 x9)) (x92 (= x13 x19)) (x90 (= x9 x109)) (x120 (= x26 x55)) (x156 (= x153 x126)) (x137 (= x26 x158)) (x143 (= x136 x109)) (x128 (= x9 x26)) (x5 (= x26 x138)) (x99 (= x9 x77)) (x135 (= x129 x153)) (x53 (= x126 x109)) (x30 (= x153 x61)) (x32 (= x109 x6)) (x40 (= x26 x61)) (x121 (= x80 x19)) (x94 (= x27 x109)) (x17 (= x129 x77)) (x10 (= x100 x153)) (x98 (= x77 x144)) (x127 (= x55 x109)) (x37 (= x109 x80)) (x159 (= x6 x153)) (x131 (= x61 x109)) (x134 (= x26 x38)) (x20 (= x19 x129)) (x22 (= x77 x108)) (x43 (= x80 x153)) (x88 (= x26 x23)) (x73 (= x77 x55)) (x103 (= x19 x61)) (x41 (= x100 x19)) (x49 (= x153 x144)) (x79 (= x153 x25)) (x1 (= x109 x38)) (x85 (= x50 x109)) (x139 (= x153 x13)) (x46 (= x77 x80)) (x123 (= x152 x109)) (x157 (= x9 x19)) (x107 (= x153 x38)) (x113 (= x25 x26)) (x48 (= x77 x8)) (x112 (= x27 x153)) (x130 (= x50 x26)) (x149 (= x26 x100)) (x82 (= x8 x153)) (x51 (= x19 x50)) (x151 (= x26 x89)) (x110 (= x89 x109)) (x35 (= x13 x77))) (and (or (or (or (or (and x18 (not x95)) (or (and (not x157) x35) (and x69 (not x128)))) (and (not x90) x71)) (and (not x99) x99)) (or (or (and x44 (not x71)) (or (and x11 (not x94)) (or (or (and x15 (not x60)) (and (not x54) x62)) (and x145 (not x112))))) (or (or (and (not x18) x116) (or (and (not x115) x14) (or (and (not x105) x101) (or (and (not x56) x73) (and x76 (not x88)))))) (or (or (and (not x69) x64) (or (or (and (not x30) x57) (or (and x39 (not x40)) (and (not x103) x17))) (and x68 (not x131)))) (or (or (and (not x141) x98) (or (and (not x139) x46) (or (and x48 (not x114)) (and x22 (not x92))))) (and (not x35) x24)))))) (and (or (or (or (and x94 (not x1)) (or (or (and x131 (not x134)) (and x141 (not x102))) (and x115 (not x107)))) (and (not x44) x90)) (or (or (or (or (and (not x142) x86) (or (and (not x72) x66) (and x147 (not x74)))) (and x106 (not x106))) (and (not x11) x1)) (or (or (and x85 (not x145)) (or (or (or (and x63 (not x91)) (and x127 (not x81))) (and x32 (not x150))) (and x143 (not x86)))) (or (or (and x16 (not x15)) (or (or (and x93 (not x10)) (or (and x21 (not x41)) (and (not x149) x110))) (and (not x66) x53))) (or (and (not x62) x123) (or (and x148 (not x147)) (or (and (not x84) x37) (or (and x125 (not x104)) (and (not x42) x132))))))))) (and (or (or (or (or (or (and x30 (not x130)) (and (not x51) x139)) (and (not x67) x105)) (and (not x85) x112)) (and x95 (not x116))) (or (or (or (or (and (not x118) x150) (or (and (not x97) x84) (and (not x12) x10))) (and x142 (not x143))) (and x107 (not x14))) (or (or (or (and x34 (not x73)) (or (and x49 (not x127)) (or (and x43 (not x87)) (or (and x82 (not x120)) (and x124 (not x3)))))) (or (or (or (and (not x79) x47) (or (and x135 (not x52)) (and (not x113) x146))) (and (not x63) x156)) (and x31 (not x76)))) (or (and x67 (not x101)) (or (or (or (and (not x29) x87) (and (not x155) x79)) (and (not x159) x159)) (and (not x32) x118)))))) (and (or (or (or (or (and x88 (not x31)) (or (and (not x137) x40) (and (not x133) x114))) (and (not x16) x60)) (and (not x64) x128)) (or (or (and (not x68) x134) (or (or (and (not x156) x91) (or (and (not x33) x149) (and (not x140) x42))) (and (not x53) x72))) (or (or (or (and x70 (not x17)) (or (and x4 (not x21)) (or (and (not x135) x58) (or (and x36 (not x122)) (and (not x20) x75))))) (or (or (and (not x110) x33) (or (or (and (not x151) x151) (and x122 (not x65))) (and (not x146) x5))) (and x137 (not x39)))) (or (and x130 (not x57)) (or (and (not x93) x12) (or (and x155 (not x47)) (or (and (not x5) x113) (and x120 (not x2))))))))) (or (or (or (or (or (or (and (not x43) x29) (or (and (not x58) x52) (and (not x121) x3))) (and (not x37) x97)) (and x51 (not x46))) (or (or (and x96 (not x22)) (or (or (or (and x78 (not x75)) (and x45 (not x45))) (and (not x124) x121)) (and x119 (not x125)))) (or (or (or (or (and x65 (not x36)) (and x20 (not x78))) (and (not x82) x2)) (and (not x132) x140)) (and x133 (not x48))))) (or (and x102 (not x98)) (or (and (not x148) x74) (or (and (not x49) x81) (or (and x41 (not x4)) (and x104 (not x119))))))) (or (and x157 (not x24)) (or (and x54 (not x123)) (or (or (and (not x96) x92) (and (not x70) x103)) (and x56 (not x34)))))))))))))
(assert (let ((x137 (x83 x153 x153)) (x36 (x83 x109 x19)) (x140 (x83 x109 x109)) (x122 (x83 x26 x19)) (x20 (x83 x19 x109)) (x2 (x83 x153 x109)) (x138 (x83 x26 x153)) (x133 (x83 x77 x26)) (x152 (x83 x109 x77)) (x89 (x83 x19 x26)) (x158 (x83 x109 x26)) (x129 (x83 x19 x19)) (x25 (x83 x77 x77)) (x151 (x83 x26 x26)) (x65 (x83 x26 x109)) (x75 (x83 x77 x19)) (x108 (x83 x19 x77)) (x45 (x83 x77 x153)) (x78 (x83 x26 x77)) (x8 (x83 x109 x153)) (x5 (x83 x153 x26)) (x144 (x83 x77 x109)) (x80 (x83 x153 x77)) (x33 (x83 x153 x19)) (x126 (x83 x19 x153))) (or (or (or (or (and (and (and (= x126 x33) (and (= x129 x129) (= x122 x89))) (= x20 x36)) (= x75 x108)) (and (and (and (and (= x89 x122) (= x151 x151)) (= x5 x138)) (= x65 x158)) (= x78 x133))) (and (and (= x8 x2) (and (= x137 x137) (and (= x5 x138) (= x126 x33)))) (= x80 x45))) (and (and (and (and (= x65 x158) (= x36 x20)) (= x2 x8)) (= x140 x140)) (= x144 x152))) (and (and (= x152 x144) (and (= x45 x80) (and (= x133 x78) (= x108 x75)))) (= x25 x25)))))
(assert (or (or (or (= (x83 x153 x153) x153) (or (= x19 (x83 x19 x19)) (= x26 (x83 x26 x26)))) (= x109 (x83 x109 x109))) (= (x83 x77 x77) x77)))
(assert (let ((x119 (x83 x77 x26)) (x6 (x83 x19 x26)) (x124 (x83 x77 x153)) (x120 (x83 x153 x77)) (x47 (x83 x153 x153)) (x100 (x83 x26 x109)) (x13 (x83 x153 x19)) (x58 (x83 x26 x26)) (x136 (x83 x26 x153)) (x96 (x83 x19 x109)) (x87 (x83 x109 x109)) (x27 (x83 x19 x77)) (x50 (x83 x153 x26)) (x70 (x83 x19 x153)) (x117 (x83 x26 x77)) (x121 (x83 x26 x19)) (x4 (x83 x109 x26)) (x12 (x83 x77 x109)) (x31 (x83 x153 x109)) (x23 (x83 x109 x19)) (x38 (x83 x19 x19)) (x9 (x83 x77 x19)) (x159 (x83 x109 x77)) (x82 (x83 x109 x153)) (x41 (x83 x77 x77))) (let ((x132 (= x38 x153)) (x73 (= x58 x77)) (x75 (= x9 x26)) (x104 (= x153 x13)) (x11 (= x82 x77)) (x145 (= x23 x77)) (x101 (= x121 x77)) (x69 (= x77 x119)) (x143 (= x153 x117)) (x125 (= x136 x153)) (x16 (= x121 x153)) (x93 (= x19 x41)) (x156 (= x47 x19)) (x61 (= x38 x19)) (x32 (= x87 x153)) (x103 (= x109 x47)) (x33 (= x13 x26)) (x15 (= x70 x77)) (x57 (= x4 x109)) (x115 (= x77 x136)) (x157 (= x27 x77)) (x49 (= x19 x23)) (x141 (= x109 x120)) (x63 (= x23 x153)) (x99 (= x77 x41)) (x48 (= x109 x31)) (x44 (= x87 x77)) (x137 (= x26 x47)) (x85 (= x9 x153)) (x35 (= x9 x77)) (x24 (= x12 x109)) (x150 (= x153 x119)) (x158 (= x4 x26)) (x53 (= x6 x153)) (x97 (= x19 x119)) (x155 (= x31 x19)) (x139 (= x109 x27)) (x144 (= x12 x26)) (x22 (= x109 x119)) (x72 (= x124 x153)) (x56 (= x77 x6)) (x60 (= x77 x47)) (x127 (= x153 x82)) (x142 (= x153 x41)) (x62 (= x4 x77)) (x89 (= x6 x26)) (x43 (= x19 x100)) (x90 (= x159 x77)) (x128 (= x117 x77)) (x34 (= x96 x19)) (x84 (= x153 x47)) (x37 (= x70 x153)) (x146 (= x19 x50)) (x30 (= x100 x109)) (x110 (= x19 x120)) (x78 (= x117 x26)) (x79 (= x19 x82)) (x86 (= x153 x159)) (x39 (= x109 x136)) (x10 (= x153 x58)) (x66 (= x153 x27)) (x135 (= x19 x13)) (x131 (= x96 x109)) (x5 (= x26 x50)) (x138 (= x26 x136)) (x36 (= x23 x26)) (x17 (= x109 x70)) (x71 (= x12 x77)) (x133 (= x26 x119)) (x114 (= x109 x87)) (x21 (= x159 x19)) (x18 (= x77 x124)) (x54 (= x100 x77)) (x20 (= x96 x26)) (x118 (= x19 x117)) (x91 (= x96 x153)) (x113 (= x136 x19)) (x98 (= x109 x124)) (x81 (= x31 x153)) (x67 (= x124 x19)) (x122 (= x121 x26)) (x52 (= x70 x19)) (x80 (= x26 x120)) (x108 (= x27 x26)) (x51 (= x19 x27)) (x129 (= x38 x26)) (x147 (= x120 x153)) (x25 (= x26 x41)) (x151 (= x58 x26)) (x14 (= x50 x77)) (x102 (= x109 x121)) (x107 (= x38 x109)) (x92 (= x109 x117)) (x76 (= x159 x109)) (x134 (= x109 x6)) (x126 (= x26 x70)) (x154 (= x19 x6)) (x149 (= x12 x19)) (x112 (= x77 x96)) (x42 (= x50 x153)) (x55 (= x58 x19)) (x105 (= x77 x38)) (x152 (= x26 x159)) (x95 (= x77 x120)) (x2 (= x26 x31)) (x29 (= x87 x19)) (x45 (= x26 x124)) (x64 (= x109 x82)) (x59 (= x19 x121)) (x148 (= x4 x153)) (x94 (= x77 x31)) (x88 (= x109 x41)) (x106 (= x58 x109)) (x40 (= x109 x13)) (x116 (= x13 x77)) (x65 (= x100 x26)) (x140 (= x26 x87)) (x123 (= x153 x100)) (x8 (= x82 x26)) (x130 (= x19 x9)) (x1 (= x50 x109)) (x3 (= x19 x4)) (x74 (= x153 x12)) (x68 (= x23 x109)) (x46 (= x9 x109))) (and (and (or (or (and x88 x88) (or (or (or (and x46 x139) (and x22 x92)) (and x98 x141)) (and x24 x76))) (or (or (or (or (or (or (and x17 x40) (or (and x102 x134) (and x107 x107))) (and x68 x131)) (and x139 x46)) (or (or (or (or (and x106 x106) (and x134 x102)) (and x39 x1)) (and x57 x30)) (and x22 x92))) (or (or (or (and x103 x103) (or (and x39 x1) (and x17 x40))) (and x48 x64)) (and x98 x141))) (or (and x24 x76) (or (and x114 x114) (or (or (and x131 x68) (and x57 x30)) (and x64 x48)))))) (and (and (or (or (or (or (or (or (and x3 x43) (and x49 x34)) (and x79 x155)) (and x29 x29)) (and x149 x21)) (or (or (or (or (or (and x52 x135) (or (and x61 x61) (and x59 x154))) (and x49 x34)) (and x51 x130)) (or (or (or (or (and x154 x59) (and x55 x55)) (and x146 x113)) (and x43 x3)) (and x97 x118))) (or (or (and x79 x155) (or (or (and x146 x113) (and x52 x135)) (and x156 x156))) (and x110 x67)))) (or (and x93 x93) (or (and x149 x21) (or (or (and x130 x51) (and x97 x118)) (and x110 x67))))) (or (or (and x25 x25) (or (and x144 x152) (or (or (and x78 x133) (and x108 x75)) (and x80 x45)))) (or (or (and x144 x152) (or (and x140 x140) (or (and x8 x2) (or (and x36 x20) (and x65 x158))))) (or (or (or (and x78 x133) (or (or (and x138 x5) (or (and x89 x122) (and x151 x151))) (and x158 x65))) (or (and x108 x75) (or (and x20 x36) (or (or (and x89 x122) (and x129 x129)) (and x33 x126))))) (or (or (or (and x137 x137) (or (and x138 x5) (and x33 x126))) (and x2 x8)) (and x80 x45)))))) (or (or (or (and x74 x86) (or (and x32 x32) (or (or (and x63 x91) (and x123 x148)) (and x127 x81)))) (or (or (or (or (or (or (and x16 x53) (and x10 x10)) (and x125 x42)) (and x123 x148)) (and x150 x143)) (or (and x66 x85) (or (and x91 x63) (or (and x37 x104) (or (and x132 x132) (and x16 x53)))))) (or (and x147 x72) (or (or (or (and x37 x104) (and x42 x125)) (and x84 x84)) (and x81 x127))))) (or (and x142 x142) (or (or (or (and x143 x150) (and x85 x66)) (and x147 x72)) (and x74 x86)))))) (or (or (or (or (or (or (or (or (and x56 x101) (and x105 x105)) (and x116 x15)) (and x112 x145)) (and x35 x157)) (or (and x128 x69) (or (and x62 x54) (or (or (and x56 x101) (and x73 x73)) (and x115 x14))))) (or (and x18 x95) (or (and x94 x11) (or (or (and x115 x14) (and x116 x15)) (and x60 x60))))) (or (or (or (and x94 x11) (or (and x54 x62) (and x145 x112))) (and x44 x44)) (and x71 x90))) (or (and x99 x99) (or (and x71 x90) (or (or (and x69 x128) (and x157 x35)) (and x95 x18)))))))))
(assert (or (or (and (not (= x77 (x83 x109 (x83 x109 x77)))) (and (not (= x109 (x83 x109 (x83 x109 x109)))) (and (and (not (= x19 (x83 x109 (x83 x109 x19)))) (not (= x26 (x83 x109 (x83 x109 x26))))) (not (= x153 (x83 x109 (x83 x109 x153))))))) (or (and (and (and (not (= (x83 x153 (x83 x153 x153)) x153)) (and (not (= x19 (x83 x153 (x83 x153 x19)))) (not (= x26 (x83 x153 (x83 x153 x26)))))) (not (= (x83 x153 (x83 x153 x109)) x109))) (not (= (x83 x153 (x83 x153 x77)) x77))) (or (and (and (not (= (x83 x26 (x83 x26 x109)) x109)) (and (not (= (x83 x26 (x83 x26 x153)) x153)) (and (not (= (x83 x26 (x83 x26 x19)) x19)) (not (= x26 (x83 x26 (x83 x26 x26))))))) (not (= (x83 x26 (x83 x26 x77)) x77))) (and (not (= (x83 x19 (x83 x19 x77)) x77)) (and (not (= x109 (x83 x19 (x83 x19 x109)))) (and (not (= (x83 x19 (x83 x19 x153)) x153)) (and (not (= (x83 x19 (x83 x19 x26)) x26)) (not (= x19 (x83 x19 (x83 x19 x19))))))))))) (and (not (= (x83 x77 (x83 x77 x77)) x77)) (and (not (= x109 (x83 x77 (x83 x77 x109)))) (and (and (not (= (x83 x77 (x83 x77 x19)) x19)) (not (= x26 (x83 x77 (x83 x77 x26))))) (not (= (x83 x77 (x83 x77 x153)) x153)))))))
(assert (let ((x89 (x83 x19 x19)) (x122 (x83 x153 x153)) (x129 (x83 x109 x109)) (x5 (x83 x77 x77)) (x151 (x83 x26 x26))) (and (= x5 (x83 x5 x5)) (and (and (and (= (x83 x89 x89) x89) (= (x83 x151 x151) x151)) (= x122 (x83 x122 x122))) (= x129 (x83 x129 x129))))))
(assert (let ((x129 (= x109 (x83 x109 x109))) (x5 (= x77 (x83 x77 x77))) (x151 (= (x83 x26 x26) x26)) (x89 (= x19 (x83 x19 x19))) (x122 (= (x83 x153 x153) x153))) (and (and (and (and (or (not x129) x129) (and (and (or x151 (not (= x109 (x83 x109 x26)))) (or (not (= x109 (x83 x109 x19))) x89)) (or (not (= x109 (x83 x109 x153))) x122))) (or x5 (not (= x109 (x83 x109 x77))))) (and (and (or (not (= (x83 x153 x77) x153)) x5) (and (or x129 (not (= (x83 x153 x109) x153))) (and (or (not x122) x122) (and (or x89 (not (= (x83 x153 x19) x153))) (or (not (= x153 (x83 x153 x26))) x151))))) (and (and (and (or x129 (not (= x26 (x83 x26 x109)))) (and (and (or x151 (not x151)) (or x89 (not (= x26 (x83 x26 x19))))) (or (not (= x26 (x83 x26 x153))) x122))) (or x5 (not (= (x83 x26 x77) x26)))) (and (and (and (or (not (= x19 (x83 x19 x153))) x122) (and (or x89 (not x89)) (or (not (= x19 (x83 x19 x26))) x151))) (or (not (= x19 (x83 x19 x109))) x129)) (or (not (= x19 (x83 x19 x77))) x5))))) (and (or (not x5) x5) (and (or (not (= (x83 x77 x109) x77)) x129) (and (or x122 (not (= x77 (x83 x77 x153)))) (and (or x151 (not (= (x83 x77 x26) x77))) (or (not (= (x83 x77 x19) x77)) x89))))))))
(assert (and (and (and (or (= (x83 x77 (x83 x153 x77)) x153) (or (or (or (= x153 (x83 x26 (x83 x153 x26))) (= (x83 x19 (x83 x153 x19)) x153)) (= x153 (x83 x153 (x83 x153 x153)))) (= x153 (x83 x109 (x83 x153 x109))))) (and (or (or (= (x83 x109 (x83 x19 x109)) x19) (or (or (= (x83 x26 (x83 x19 x26)) x19) (= (x83 x19 (x83 x19 x19)) x19)) (= x19 (x83 x153 (x83 x19 x153))))) (= x19 (x83 x77 (x83 x19 x77)))) (or (or (or (or (= x26 (x83 x19 (x83 x26 x19))) (= (x83 x26 (x83 x26 x26)) x26)) (= x26 (x83 x153 (x83 x26 x153)))) (= x26 (x83 x109 (x83 x26 x109)))) (= (x83 x77 (x83 x26 x77)) x26)))) (or (= x109 (x83 x77 (x83 x109 x77))) (or (or (or (= (x83 x19 (x83 x109 x19)) x109) (= x109 (x83 x26 (x83 x109 x26)))) (= (x83 x153 (x83 x109 x153)) x109)) (= x109 (x83 x109 (x83 x109 x109)))))) (or (or (= (x83 x109 (x83 x77 x109)) x77) (or (= (x83 x153 (x83 x77 x153)) x77) (or (= x77 (x83 x26 (x83 x77 x26))) (= (x83 x19 (x83 x77 x19)) x77)))) (= x77 (x83 x77 (x83 x77 x77))))))
(assert (and (and (= x153 (x83 x26 x109)) (and (= x26 (x83 x109 x109)) (= (x83 x109 x77) x19))) (= x77 (x83 x109 x153))))
(assert (or (not (= x77 (x83 (x83 x77 x77) x77))) (or (or (or (not (= (x83 (x83 x19 x19) x19) x19)) (not (= (x83 (x83 x26 x26) x26) x26))) (not (= x153 (x83 (x83 x153 x153) x153)))) (not (= x109 (x83 (x83 x109 x109) x109))))))
(assert (and (or (= (x83 (x83 x77 x77) x77) x77) (or (or (or (= (x83 (x83 x26 x77) x26) x77) (= (x83 (x83 x19 x77) x19) x77)) (= x77 (x83 (x83 x153 x77) x153))) (= x77 (x83 (x83 x109 x77) x109)))) (and (or (= (x83 (x83 x77 x109) x77) x109) (or (or (= x109 (x83 (x83 x153 x109) x153)) (or (= (x83 (x83 x19 x109) x19) x109) (= (x83 (x83 x26 x109) x26) x109))) (= x109 (x83 (x83 x109 x109) x109)))) (and (and (or (= x19 (x83 (x83 x77 x19) x77)) (or (= (x83 (x83 x109 x19) x109) x19) (or (or (= (x83 (x83 x26 x19) x26) x19) (= (x83 (x83 x19 x19) x19) x19)) (= x19 (x83 (x83 x153 x19) x153))))) (or (or (= x26 (x83 (x83 x109 x26) x109)) (or (or (= x26 (x83 (x83 x26 x26) x26)) (= (x83 (x83 x19 x26) x19) x26)) (= (x83 (x83 x153 x26) x153) x26))) (= x26 (x83 (x83 x77 x26) x77)))) (or (= x153 (x83 (x83 x77 x153) x77)) (or (or (or (= x153 (x83 (x83 x26 x153) x26)) (= x153 (x83 (x83 x19 x153) x19))) (= x153 (x83 (x83 x153 x153) x153))) (= x153 (x83 (x83 x109 x153) x109))))))))
(assert (let ((x129 (x83 x109 x109)) (x5 (x83 x77 x77)) (x122 (x83 x153 x153)) (x89 (x83 x19 x19)) (x151 (x83 x26 x26))) (or (and (not (= x77 x5)) (and (not (= x129 x77)) (and (and (not (= x151 x77)) (not (= x77 x89))) (not (= x77 x122))))) (or (or (and (not (= x153 x5)) (and (and (and (not (= x153 x151)) (not (= x89 x153))) (not (= x153 x122))) (not (= x153 x129)))) (or (and (not (= x5 x19)) (and (and (not (= x122 x19)) (and (not (= x89 x19)) (not (= x19 x151)))) (not (= x129 x19)))) (and (and (and (not (= x26 x122)) (and (not (= x26 x151)) (not (= x89 x26)))) (not (= x129 x26))) (not (= x26 x5))))) (and (not (= x109 x5)) (and (not (= x129 x109)) (and (not (= x109 x122)) (and (not (= x151 x109)) (not (= x109 x89))))))))))
(check-sat)
(exit)
